unsat
(:cnf-encoding-aux-vars 78
 :eliminated-vars       78
 :max-memory            18.71
 :memory                18.30
 :nlsat-conflicts       10
 :nlsat-decisions       9
 :nlsat-learned-added   9
 :nlsat-propagations    52
 :num-allocs            15217
 :rlimit-count          45209
 :time                  0.01
 :total-time            0.03)
